10
10
24275
0
0
59 50 40 41 37 51 57 56 42 45
1
0
58 51 39 39 36 49 58 61 39 44
2
0
58 50 40 41 37 52 58 59 43 49
3
0
56 48 37 42 36 46 60 56 38 45
4
0
64 49 40 38 35 49 61 61 41 44
5
0
56 49 40 40 34 50 57 61 39 45
6
0
60 52 37 37 34 52 57 56 36 46
7
0
60 50 40 38 32 49 58 59 39 48
8
0
57 49 38 40 33 50 61 60 40 46
9
0
58 49 40 38 34 52 60 61 39 46
